82 82
19 66
30 36
32 2
14 25
12 20
41 35
11 46
21 5
4 50
23 30
30 7
40 80
9 31
13 64
6 67
25 18
21 75
18 59
26 58
20 24
6 17
23 42
16 3
3 16
37 74
33 54
3 77
41 28
2 78
28 70
8 57
20 76
9 65
8 63
27 33
38 68
18 61
37 47
34 48
19 1
22 23
40 37
31 79
25 13
7 56
35 51
5 4
10 40
31 21
24 32
26 41
7 44
39 29
1 10
17 73
24 8
2 45
16 22
5 39
15 81
35 71
12 27
4 6
22 11
34 82
15 12
11 49
36 53
28 14
38 52
27 60
13 26
39 9
32 62
10 55
29 43
14 38
17 19
1 34
36 72
29 69
33 15
